NAME /Users/henri/Research/solvers/instances/idol-instances/robust/collection/cbp_Subramanyam_et_al_2020/CapBud_N30_19/models/uncertain_technology_matrix/
ROWS
 N  OBJ
 L  capacity
 L  c_6870
 L  c_6871
 L  c_6872
 L  c_6873
 L  c_6874
 L  c_6875
 L  c_6876
 L  c_6877
 L  c_6878
 L  c_6879
 L  c_6880
 L  c_6881
 L  c_6882
 L  c_6883
 L  c_6884
 L  c_6885
 L  c_6886
 L  c_6887
 L  c_6888
 L  c_6889
 L  c_6890
 L  c_6891
 L  c_6892
 L  c_6893
 L  c_6894
 L  c_6895
 L  c_6896
 L  c_6897
 L  c_6898
 L  c_6899
COLUMNS
    MARKER    'MARKER'                 'INTORG'
    x_0        OBJ        -6.9182
    x_0        c_6870     1
    x_0        capacity   1.38364
    x_1        OBJ        -8.45733
    x_1        c_6871     1
    x_1        capacity   1.69147
    x_2        OBJ        -9.82971
    x_2        c_6872     1
    x_2        capacity   1.96594
    x_3        OBJ        -2.43506
    x_3        c_6873     1
    x_3        capacity   0.487013
    x_4        OBJ        -5.03981
    x_4        c_6874     1
    x_4        capacity   1.00796
    x_5        OBJ        -4.70239
    x_5        c_6875     1
    x_5        capacity   0.940478
    x_6        OBJ        -8.41757
    x_6        c_6876     1
    x_6        capacity   1.68351
    x_7        OBJ        -9.18025
    x_7        c_6877     1
    x_7        capacity   1.83605
    x_8        OBJ        -5.39809
    x_8        c_6878     1
    x_8        capacity   1.07962
    x_9        OBJ        -7.45458
    x_9        c_6879     1
    x_9        capacity   1.49092
    x_10       OBJ        -0.752929
    x_10       c_6880     1
    x_10       capacity   0.150586
    x_11       OBJ        -4.11434
    x_11       c_6881     1
    x_11       capacity   0.822868
    x_12       OBJ        -0.794123
    x_12       c_6882     1
    x_12       capacity   0.158825
    x_13       OBJ        -1.11611
    x_13       c_6883     1
    x_13       capacity   0.223222
    x_14       OBJ        -9.2545
    x_14       c_6884     1
    x_14       capacity   1.8509
    x_15       OBJ        -3.6857
    x_15       c_6885     1
    x_15       capacity   0.737139
    x_16       OBJ        -3.04401
    x_16       c_6886     1
    x_16       capacity   0.608801
    x_17       OBJ        -3.80067
    x_17       c_6887     1
    x_17       capacity   0.760134
    x_18       OBJ        -1.5429
    x_18       c_6888     1
    x_18       capacity   0.30858
    x_19       OBJ        -7.28818
    x_19       c_6889     1
    x_19       capacity   1.45764
    x_20       OBJ        -5.61289
    x_20       c_6890     1
    x_20       capacity   1.12258
    x_21       OBJ        -8.25853
    x_21       c_6891     1
    x_21       capacity   1.65171
    x_22       OBJ        -1.17957
    x_22       c_6892     1
    x_22       capacity   0.235915
    x_23       OBJ        -3.25504
    x_23       c_6893     1
    x_23       capacity   0.651008
    x_24       OBJ        -8.61737
    x_24       c_6894     1
    x_24       capacity   1.72347
    x_25       OBJ        -1.99779
    x_25       c_6895     1
    x_25       capacity   0.399558
    x_26       OBJ        -4.42303
    x_26       c_6896     1
    x_26       capacity   0.884606
    x_27       OBJ        -8.393
    x_27       c_6897     1
    x_27       capacity   1.6786
    x_28       OBJ        -7.88732
    x_28       c_6898     1
    x_28       capacity   1.57746
    x_29       OBJ        -6.34544
    x_29       c_6899     1
    x_29       capacity   1.26909
    y_0        OBJ        -5.53456
    y_0        c_6870     1
    y_0        capacity   1.38364
    y_1        OBJ        -6.76586
    y_1        c_6871     1
    y_1        capacity   1.69147
    y_2        OBJ        -7.86377
    y_2        c_6872     1
    y_2        capacity   1.96594
    y_3        OBJ        -1.94805
    y_3        c_6873     1
    y_3        capacity   0.487013
    y_4        OBJ        -4.03184
    y_4        c_6874     1
    y_4        capacity   1.00796
    y_5        OBJ        -3.76191
    y_5        c_6875     1
    y_5        capacity   0.940478
    y_6        OBJ        -6.73406
    y_6        c_6876     1
    y_6        capacity   1.68351
    y_7        OBJ        -7.3442
    y_7        c_6877     1
    y_7        capacity   1.83605
    y_8        OBJ        -4.31847
    y_8        c_6878     1
    y_8        capacity   1.07962
    y_9        OBJ        -5.96366
    y_9        c_6879     1
    y_9        capacity   1.49092
    y_10       OBJ        -0.602343
    y_10       c_6880     1
    y_10       capacity   0.150586
    y_11       OBJ        -3.29147
    y_11       c_6881     1
    y_11       capacity   0.822868
    y_12       OBJ        -0.635298
    y_12       c_6882     1
    y_12       capacity   0.158825
    y_13       OBJ        -0.892889
    y_13       c_6883     1
    y_13       capacity   0.223222
    y_14       OBJ        -7.4036
    y_14       c_6884     1
    y_14       capacity   1.8509
    y_15       OBJ        -2.94856
    y_15       c_6885     1
    y_15       capacity   0.737139
    y_16       OBJ        -2.43521
    y_16       c_6886     1
    y_16       capacity   0.608801
    y_17       OBJ        -3.04053
    y_17       c_6887     1
    y_17       capacity   0.760134
    y_18       OBJ        -1.23432
    y_18       c_6888     1
    y_18       capacity   0.30858
    y_19       OBJ        -5.83054
    y_19       c_6889     1
    y_19       capacity   1.45764
    y_20       OBJ        -4.49031
    y_20       c_6890     1
    y_20       capacity   1.12258
    y_21       OBJ        -6.60682
    y_21       c_6891     1
    y_21       capacity   1.65171
    y_22       OBJ        -0.943658
    y_22       c_6892     1
    y_22       capacity   0.235915
    y_23       OBJ        -2.60403
    y_23       c_6893     1
    y_23       capacity   0.651008
    y_24       OBJ        -6.89389
    y_24       c_6894     1
    y_24       capacity   1.72347
    y_25       OBJ        -1.59823
    y_25       c_6895     1
    y_25       capacity   0.399558
    y_26       OBJ        -3.53842
    y_26       c_6896     1
    y_26       capacity   0.884606
    y_27       OBJ        -6.7144
    y_27       c_6897     1
    y_27       capacity   1.6786
    y_28       OBJ        -6.30985
    y_28       c_6898     1
    y_28       capacity   1.57746
    y_29       OBJ        -5.07635
    y_29       c_6899     1
    y_29       capacity   1.26909
    MARKER    'MARKER'                 'INTEND'
RHS
    RHS       capacity   79.5982
    RHS       c_6870     1
    RHS       c_6871     1
    RHS       c_6872     1
    RHS       c_6873     1
    RHS       c_6874     1
    RHS       c_6875     1
    RHS       c_6876     1
    RHS       c_6877     1
    RHS       c_6878     1
    RHS       c_6879     1
    RHS       c_6880     1
    RHS       c_6881     1
    RHS       c_6882     1
    RHS       c_6883     1
    RHS       c_6884     1
    RHS       c_6885     1
    RHS       c_6886     1
    RHS       c_6887     1
    RHS       c_6888     1
    RHS       c_6889     1
    RHS       c_6890     1
    RHS       c_6891     1
    RHS       c_6892     1
    RHS       c_6893     1
    RHS       c_6894     1
    RHS       c_6895     1
    RHS       c_6896     1
    RHS       c_6897     1
    RHS       c_6898     1
    RHS       c_6899     1
BOUNDS
 LI BND       x_0        0
 UI BND       x_0        1
 LI BND       x_1        0
 UI BND       x_1        1
 LI BND       x_2        0
 UI BND       x_2        1
 LI BND       x_3        0
 UI BND       x_3        1
 LI BND       x_4        0
 UI BND       x_4        1
 LI BND       x_5        0
 UI BND       x_5        1
 LI BND       x_6        0
 UI BND       x_6        1
 LI BND       x_7        0
 UI BND       x_7        1
 LI BND       x_8        0
 UI BND       x_8        1
 LI BND       x_9        0
 UI BND       x_9        1
 LI BND       x_10       0
 UI BND       x_10       1
 LI BND       x_11       0
 UI BND       x_11       1
 LI BND       x_12       0
 UI BND       x_12       1
 LI BND       x_13       0
 UI BND       x_13       1
 LI BND       x_14       0
 UI BND       x_14       1
 LI BND       x_15       0
 UI BND       x_15       1
 LI BND       x_16       0
 UI BND       x_16       1
 LI BND       x_17       0
 UI BND       x_17       1
 LI BND       x_18       0
 UI BND       x_18       1
 LI BND       x_19       0
 UI BND       x_19       1
 LI BND       x_20       0
 UI BND       x_20       1
 LI BND       x_21       0
 UI BND       x_21       1
 LI BND       x_22       0
 UI BND       x_22       1
 LI BND       x_23       0
 UI BND       x_23       1
 LI BND       x_24       0
 UI BND       x_24       1
 LI BND       x_25       0
 UI BND       x_25       1
 LI BND       x_26       0
 UI BND       x_26       1
 LI BND       x_27       0
 UI BND       x_27       1
 LI BND       x_28       0
 UI BND       x_28       1
 LI BND       x_29       0
 UI BND       x_29       1
 LI BND       y_0        0
 UI BND       y_0        1
 LI BND       y_1        0
 UI BND       y_1        1
 LI BND       y_2        0
 UI BND       y_2        1
 LI BND       y_3        0
 UI BND       y_3        1
 LI BND       y_4        0
 UI BND       y_4        1
 LI BND       y_5        0
 UI BND       y_5        1
 LI BND       y_6        0
 UI BND       y_6        1
 LI BND       y_7        0
 UI BND       y_7        1
 LI BND       y_8        0
 UI BND       y_8        1
 LI BND       y_9        0
 UI BND       y_9        1
 LI BND       y_10       0
 UI BND       y_10       1
 LI BND       y_11       0
 UI BND       y_11       1
 LI BND       y_12       0
 UI BND       y_12       1
 LI BND       y_13       0
 UI BND       y_13       1
 LI BND       y_14       0
 UI BND       y_14       1
 LI BND       y_15       0
 UI BND       y_15       1
 LI BND       y_16       0
 UI BND       y_16       1
 LI BND       y_17       0
 UI BND       y_17       1
 LI BND       y_18       0
 UI BND       y_18       1
 LI BND       y_19       0
 UI BND       y_19       1
 LI BND       y_20       0
 UI BND       y_20       1
 LI BND       y_21       0
 UI BND       y_21       1
 LI BND       y_22       0
 UI BND       y_22       1
 LI BND       y_23       0
 UI BND       y_23       1
 LI BND       y_24       0
 UI BND       y_24       1
 LI BND       y_25       0
 UI BND       y_25       1
 LI BND       y_26       0
 UI BND       y_26       1
 LI BND       y_27       0
 UI BND       y_27       1
 LI BND       y_28       0
 UI BND       y_28       1
 LI BND       y_29       0
 UI BND       y_29       1
ENDATA
